
Gurobi 11.0.0 (linux64) logging started Thu Sep 19 17:54:51 2024

Set parameter LogFile to value "/lustre1/scratch/348/vsc34888/JointResearch/05.Models/06.Benchmarking/L.Cont_Investments_per_hour/IEEE118_mod1_ByStages_nc140/openStarNet_IEEE118_mod1_ByStages_nc140.log"
Set parameter Method to value 2
Set parameter MIPFocus to value 1
Set parameter Presolve to value 2
Set parameter RINS to value 100
Set parameter MIPGap to value 0.01
Set parameter Threads to value 36
Set parameter TimeLimit to value 259200
Set parameter IterationLimit to value 760000000
Gurobi Optimizer version 11.0.0 build v11.0.0rc2 (linux64 - "Rocky Linux 8.9 (Green Obsidian)")

CPU model: Intel(R) Xeon(R) Gold 6240 CPU @ 2.60GHz, instruction set [SSE2|AVX|AVX2|AVX512]
Thread count: 36 physical cores, 36 logical processors, using up to 36 threads

Optimize a model with 198943 rows, 146908 columns and 512212 nonzeros
Model fingerprint: 0xef54c440
Variable types: 146874 continuous, 34 integer (34 binary)
Coefficient statistics:
  Matrix range     [3e-04, 9e+03]
  Objective range  [1e+00, 1e+00]
  Bounds range     [1e-04, 3e+00]
  RHS range        [2e-04, 3e+00]
Presolve removed 134569 rows and 67769 columns
Presolve time: 0.90s
Presolved: 64374 rows, 79139 columns, 235388 nonzeros
Variable types: 79105 continuous, 34 integer (34 binary)
Root relaxation presolved: 64374 rows, 79139 columns, 235388 nonzeros

Root barrier log...

Ordering time: 0.02s

Barrier statistics:
 Dense cols : 34
 AA' NZ     : 2.917e+05
 Factor NZ  : 1.159e+06 (roughly 70 MB of memory)
 Factor Ops : 2.561e+07 (less than 1 second per iteration)
 Threads    : 35

                  Objective                Residual
Iter       Primal          Dual         Primal    Dual     Compl     Time
   0   8.98733815e+06 -2.02953779e+09  1.57e+01 2.36e+03  4.75e+04     1s
   1   2.19248739e+06 -7.83503957e+08  3.49e+00 3.70e-08  9.90e+03     1s
   2   5.74598359e+05 -2.05600504e+08  6.06e-01 4.56e-08  1.69e+03     1s
   3   3.09547507e+05 -5.76220119e+07  1.03e-01 5.61e-09  3.58e+02     2s
   4   2.34057304e+05 -8.00456890e+06  7.40e-03 1.09e-09  4.42e+01     2s
   5   1.96956871e+05 -2.05331765e+06  3.78e-03 2.66e-10  1.20e+01     2s
   6   1.29155517e+05 -5.98193793e+05  1.68e-03 7.12e-11  3.85e+00     2s
   7   6.54901760e+04 -3.23397300e+05  7.24e-04 3.77e-11  2.05e+00     2s
   8   2.83623920e+04 -8.75190524e+04  2.50e-04 1.00e-11  6.11e-01     2s
   9   1.63006965e+04 -4.03205868e+04  1.24e-04 7.28e-12  2.98e-01     2s
  10   9.15189070e+03 -9.15570002e+03  5.65e-05 1.82e-12  9.64e-02     2s
  11   5.46947286e+03 -2.85865429e+03  2.88e-05 1.46e-11  4.39e-02     2s
  12   4.18791606e+03 -1.80622110e+03  2.00e-05 7.28e-12  3.16e-02     2s
  13   3.15479716e+03 -3.72169720e+02  1.31e-05 7.28e-12  1.86e-02     2s
  14   2.43125543e+03  1.83736409e+02  8.36e-06 7.28e-12  1.18e-02     2s
  15   1.89620214e+03  4.97889055e+02  4.96e-06 7.28e-12  7.36e-03     2s
  16   1.57649135e+03  8.33043510e+02  2.99e-06 7.28e-12  3.92e-03     2s
  17   1.33403129e+03  9.73393616e+02  1.62e-06 7.28e-12  1.90e-03     2s
  18   1.23507225e+03  1.01449445e+03  9.93e-07 7.28e-12  1.16e-03     2s
  19   1.16979603e+03  1.03641597e+03  5.86e-07 7.28e-12  7.02e-04     2s
  20   1.14578858e+03  1.05061958e+03  4.40e-07 3.64e-12  5.01e-04     2s
  21   1.11912820e+03  1.05788325e+03  2.77e-07 7.28e-12  3.23e-04     2s
  22   1.10619319e+03  1.06343312e+03  1.97e-07 7.28e-12  2.25e-04     2s
  23   1.09188787e+03  1.06715261e+03  1.10e-07 3.64e-12  1.30e-04     2s
  24   1.08783862e+03  1.06805214e+03  8.60e-08 7.28e-12  1.04e-04     2s
  25   1.07934022e+03  1.07128062e+03  3.46e-08 7.28e-12  4.24e-05     2s
  26   1.07493449e+03  1.07249842e+03  9.13e-09 7.28e-12  1.28e-05     2s
  27   1.07384491e+03  1.07304979e+03  3.02e-09 1.46e-11  4.19e-06     2s
  28   1.07356915e+03  1.07317330e+03  1.56e-09 7.28e-12  2.08e-06     2s
  29   1.07340196e+03  1.07322297e+03  1.67e-09 7.28e-12  9.43e-07     2s
  30   1.07331305e+03  1.07324761e+03  2.59e-09 3.64e-12  3.45e-07     2s
  31   1.07327152e+03  1.07326337e+03  1.37e-09 7.28e-12  4.29e-08     3s
  32   1.07326719e+03  1.07326538e+03  6.28e-10 7.28e-12  9.52e-09     3s
  33   1.07326628e+03  1.07326624e+03  2.36e-10 3.64e-12  2.21e-10     3s
  34   1.07326627e+03  1.07326627e+03  5.65e-11 7.28e-12  2.22e-13     3s

Barrier solved model in 34 iterations and 2.61 seconds (2.55 work units)
Optimal objective 1.07326627e+03


Root relaxation: objective 1.073266e+03, 5012 iterations, 2.63 seconds (2.14 work units)

    Nodes    |    Current Node    |     Objective Bounds      |     Work
 Expl Unexpl |  Obj  Depth IntInf | Incumbent    BestBd   Gap | It/Node Time

     0     0 1073.26627    0   23          - 1073.26627      -     -    4s
H    0     0                    6696.8954191 1073.26627  84.0%     -    9s
H    0     0                    2925.9159852 1073.26627  63.3%     -   14s
     0     0 1093.33435    0   22 2925.91599 1093.33435  62.6%     -   22s
H    0     0                    1277.6004342 1093.33435  14.4%     -   26s
     0     0 1093.53971    0   22 1277.60043 1093.53971  14.4%     -   27s
     0     0 1093.54537    0   22 1277.60043 1093.54537  14.4%     -   27s
     0     0 1093.54555    0   22 1277.60043 1093.54555  14.4%     -   27s
     0     0 1094.81394    0   22 1277.60043 1094.81394  14.3%     -   30s
     0     0 1094.81394    0   23 1277.60043 1094.81394  14.3%     -   31s
     0     0 1094.81394    0   23 1277.60043 1094.81394  14.3%     -   31s
     0     0 1096.53714    0   22 1277.60043 1096.53714  14.2%     -   37s
     0     0 1096.58380    0   21 1277.60043 1096.58380  14.2%     -   38s
     0     0 1096.58533    0   21 1277.60043 1096.58533  14.2%     -   38s
     0     0 1096.95639    0   21 1277.60043 1096.95639  14.1%     -   42s
     0     0 1096.97462    0   21 1277.60043 1096.97462  14.1%     -   43s
     0     0 1096.97472    0   21 1277.60043 1096.97472  14.1%     -   43s
     0     0 1096.99539    0   21 1277.60043 1096.99539  14.1%     -   45s
H    0     0                    1231.7345279 1096.99539  10.9%     -  749s
     0     2 1096.99539    0   21 1231.73453 1096.99539  10.9%     -  751s
     1     4 1155.13405    1   20 1231.73453 1097.09681  10.9%  6824  758s
     3     8 1204.82706    2   18 1231.73453 1108.27630  10.0%  5405  770s
     7    16 1225.83218    3   22 1231.73453 1129.82500  8.27%  4883  782s
    15    22     cutoff    4      1231.73453 1137.81837  7.62%  3529  792s
    31    38 1150.27518    5   18 1231.73453 1143.79038  7.14%  2840  803s
    53    52 1182.59367    6   15 1231.73453 1150.27581  6.61%  2906  833s
    89    68 1186.78785    7   14 1231.73453 1157.38217  6.04%  2997  865s
   125    98 1194.80865    8   13 1231.73453 1166.23815  5.32%  3123  895s
   161   114 1200.51784    9   12 1231.73453 1166.38218  5.31%  2985  917s
   197   122 1209.19051   10   12 1231.73453 1166.38218  5.31%  2784  941s
   247   124 1215.62772   11   12 1231.73453 1166.38218  5.31%  2523  967s
   297   122 1218.19792   12    9 1231.73453 1166.38218  5.31%  2406  974s
   347   126     cutoff   13      1231.73453 1166.38218  5.31%  2232 1004s
   409   127     cutoff   13      1231.73453 1166.77183  5.27%  2146 1036s
H  436   127                    1231.4366117 1166.77183  5.25%  2163 1036s
   482   118 1229.70922   19    3 1231.43661 1166.77183  5.25%  2099 1064s
   559    98     cutoff   21      1231.43661 1172.46757  4.79%  1994 1103s
   649    77 1216.52558   12   10 1231.43661 1172.46757  4.79%  1996 1134s
*  670    77              20    1231.2242428 1172.46757  4.77%  1983 1134s
   729    66 1227.66931   13    9 1231.22424 1172.46757  4.77%  1955 1163s
   810    43     cutoff   14      1231.22424 1178.54149  4.28%  1943 1181s
   895    21     cutoff    9      1231.22424 1179.91019  4.17%  1889 1217s
   951    38 1212.75385   11    9 1231.22424 1194.91206  2.95%  1838 1245s
   995    16 1228.86221   12    7 1231.22424 1206.00820  2.05%  1838 1284s
  1057     2     cutoff   13      1231.22424 1214.67340  1.34%  1771 1291s

Cutting planes:
  Gomory: 1
  Implied bound: 297
  MIR: 757
  RLT: 2
  Relax-and-lift: 1

Explored 1085 nodes (1904369 simplex iterations) in 1291.93 seconds (1579.55 work units)
Thread count was 36 (of 36 available processors)

Solution count 6: 1231.22 1231.44 1231.73 ... 6696.9

Optimal solution found (tolerance 1.00e-02)
Best objective 1.231224242794e+03, best bound 1.227306519973e+03, gap 0.3182%

Gurobi 11.0.0 (linux64) logging started Thu Sep 19 18:16:59 2024

Set parameter LogFile to value "/lustre1/scratch/348/vsc34888/JointResearch/05.Models/06.Benchmarking/L.Cont_Investments_per_hour/IEEE118_mod1_ByStages_nc140/openStarNet_IEEE118_mod1_ByStages_nc140.log"
Set parameter Method to value 2
Set parameter MIPFocus to value 1
Set parameter Presolve to value 2
Set parameter RINS to value 100
Set parameter MIPGap to value 0.01
Set parameter Threads to value 36
Set parameter TimeLimit to value 259200
Set parameter IterationLimit to value 760000000
Gurobi Optimizer version 11.0.0 build v11.0.0rc2 (linux64 - "Rocky Linux 8.9 (Green Obsidian)")

CPU model: Intel(R) Xeon(R) Gold 6240 CPU @ 2.60GHz, instruction set [SSE2|AVX|AVX2|AVX512]
Thread count: 36 physical cores, 36 logical processors, using up to 36 threads

Optimize a model with 198943 rows, 146874 columns and 493138 nonzeros
Model fingerprint: 0x97b966c9
Coefficient statistics:
  Matrix range     [3e-04, 9e+03]
  Objective range  [1e+00, 1e+00]
  Bounds range     [1e-04, 3e+00]
  RHS range        [2e-04, 3e+02]
Presolve removed 148665 rows and 64789 columns
Presolve time: 0.30s
Presolved: 50278 rows, 82433 columns, 198584 nonzeros

Ordering time: 0.01s

Barrier statistics:
 AA' NZ     : 1.690e+05
 Factor NZ  : 6.704e+05 (roughly 60 MB of memory)
 Factor Ops : 9.870e+06 (less than 1 second per iteration)
 Threads    : 36

                  Objective                Residual
Iter       Primal          Dual         Primal    Dual     Compl     Time
   0   1.51367399e+07 -9.02834422e+08  9.13e+01 6.23e+01  1.99e+04     0s
   1   1.70212620e+06 -2.73311435e+08  8.86e+00 1.86e-12  2.62e+03     0s
   2   4.41694042e+05 -4.44637241e+07  1.37e+00 2.25e-12  3.53e+02     0s
   3   2.19210310e+05 -6.39722873e+06  6.11e-02 1.82e-12  3.87e+01     1s
   4   1.20640431e+05 -9.82965154e+05  9.56e-04 3.18e-12  6.13e+00     1s
   5   5.67622534e+04 -2.82981571e+05  3.37e-04 1.14e-12  1.89e+00     1s
   6   2.12543502e+04 -9.62304986e+04  9.61e-05 4.55e-13  6.52e-01     1s
   7   1.21641785e+04 -2.55990863e+04  4.42e-05 4.55e-13  2.10e-01     1s
   8   7.98229055e+03 -9.90311816e+03  2.40e-05 4.55e-13  9.93e-02     1s
   9   4.87191135e+03 -5.17402440e+03  1.12e-05 4.55e-13  5.58e-02     1s
  10   3.83452596e+03 -2.18874681e+03  7.73e-06 2.27e-13  3.34e-02     1s
  11   2.55690603e+03 -6.78917987e+02  3.65e-06 4.55e-13  1.80e-02     1s
  12   1.87802287e+03  2.70736577e+02  1.63e-06 4.55e-13  8.92e-03     1s
  13   1.57649477e+03  7.65715441e+02  8.24e-07 4.55e-13  4.50e-03     1s
  14   1.45936603e+03  9.24179132e+02  5.30e-07 2.27e-13  2.97e-03     1s
  15   1.36823535e+03  1.03493347e+03  3.08e-07 2.27e-13  1.85e-03     1s
  16   1.30308228e+03  1.10884109e+03  1.56e-07 3.41e-13  1.08e-03     1s
  17   1.26904838e+03  1.17149264e+03  7.78e-08 4.55e-13  5.41e-04     1s
  18   1.24653734e+03  1.19727679e+03  2.97e-08 4.55e-13  2.73e-04     1s
  19   1.23859950e+03  1.21262410e+03  1.37e-08 9.09e-13  1.44e-04     1s
  20   1.23388735e+03  1.22157138e+03  4.59e-09 4.55e-13  6.83e-05     1s
  21   1.23189115e+03  1.22827880e+03  9.50e-10 4.55e-13  2.00e-05     1s
  22   1.23153250e+03  1.23037341e+03  4.08e-10 4.55e-13  6.43e-06     1s
  23   1.23138021e+03  1.23082471e+03  2.00e-10 4.55e-13  3.08e-06     1s
  24   1.23125697e+03  1.23110399e+03  2.36e-10 2.27e-13  8.49e-07     1s
  25   1.23122974e+03  1.23120533e+03  7.07e-11 4.55e-13  1.35e-07     1s
  26   1.23122471e+03  1.23122319e+03  1.31e-10 4.55e-13  8.41e-09     1s
  27   1.23122425e+03  1.23122424e+03  1.25e-10 9.09e-13  4.45e-11     1s

Barrier solved model in 27 iterations and 1.01 seconds (0.94 work units)
Optimal objective 1.23122425e+03

Crossover log...

   14556 DPushes remaining with DInf 0.0000000e+00                 1s
       0 DPushes remaining with DInf 0.0000000e+00                 1s

     633 PPushes remaining with PInf 0.0000000e+00                 1s
       0 PPushes remaining with PInf 0.0000000e+00                 1s

  Push phase complete: Pinf 0.0000000e+00, Dinf 3.2043615e-12      1s

Extra simplex iterations after uncrush: 2
Iteration    Objective       Primal Inf.    Dual Inf.      Time
    4011    1.2312242e+03   0.000000e+00   0.000000e+00      2s

Solved in 4011 iterations and 1.51 seconds (1.25 work units)
Optimal objective  1.231224243e+03
